c 1 NPC
c 2 Mood
c 3 Friendly
c 4 Hostile
c 5 Profession
c 6 Farmer
c 7 Villager
c 8 Warrior
c 9 HarvestSkills
c 10 Reaping
c 11 Hauling
c 12 Threshing
p cnf 12 20
1 0
2 -1 0
5 -1 0
2 -3 0
2 -4 0
3 4 -2 0
-3 -4 0
5 -6 0
5 -7 0
5 -8 0
6 7 8 -5 0
9 -10 0
9 -11 0
9 -12 0
10 -9 0
11 -9 0
12 -9 0
8 3 -6 0
8 3 -7 0
-6 9 0
